<?xml version="1.0" encoding="utf-8" standalone="yes"?>
<SchedulingPeriod ID="sprint01" xmlns:xsi="http://www.w3.org/2001/XMLSchema-instance" xsi:noNamespaceSchemaLocation="competition.xsd">
  <StartDate>2010-01-01</StartDate>
  <EndDate>2010-01-28</EndDate>
  <CourseTypes>
    <Course ID="00000">
      <StartTime>08:00:00</StartTime>
      <EndTime>09:50:00</EndTime>
      <Description>CS111</Description>
    </Course>
    <Course ID="00001">
      <StartTime>10:00:00</StartTime>
      <EndTime>11:50:00</EndTime>
      <Description>CS222</Description>
    </Course>
    <Course ID="00002">
      <StartTime>12:00:00</StartTime>
      <EndTime>13:50:00</EndTime>
      <Description>CS333</Description>
    </Course>
    <Course ID="00003">
      <StartTime>14:00:00</StartTime>
      <EndTime>15:50:00</EndTime>
      <Description>CS444</Description>
    </Course>
  </CourseTypes>
  <Contracts>
    <Contract ID="0">
      <Description>Standard TA Contract</Description>
      <SingleAssignmentPerDay weight="1">true</SingleAssignmentPerDay>
      <MaxNumAssignments on="1" weight="1">16</MaxNumAssignments>
      <MinNumAssignments on="1" weight="1">9</MinNumAssignments>
    </Contract>
  </Contracts>
  <Tas>
    <Ta ID="0">
      <ContractID>0</ContractID>
      <Name>Furlow, Scott</Name>
    </Ta>
    <Ta ID="1">
      <ContractID>0</ContractID>
      <Name>Peterson, Luke</Name>
    </Ta>
    <Ta ID="2">
      <ContractID>0</ContractID>
      <Name>Hooper, Alex</Name>
    </Ta>
    <Ta ID="3">
      <ContractID>0</ContractID>
      <Name>Jones, Myron</Name>
    </Ta>
    <Ta ID="4">
      <ContractID>0</ContractID>
      <Name>Bouvier, Dennis</Name>
    </Ta>
    <Ta ID="5">
      <ContractID>0</ContractID>
      <Name>White, William</Name>
    </Ta>
    <Ta ID="6">
      <ContractID>0</ContractID>
      <Name>Crk, Igor</Name>
    </Ta>
    <Ta ID="7">
      <ContractID>0</ContractID>
      <Name>Yu, William</Name>
    </Ta>
    <Ta ID="8">
      <ContractID>0</ContractID>
      <Name>Mayer, Gary</Name>
    </Ta>
    <Ta ID="9">
      <ContractID>0</ContractID>
      <Name>Gamage, Thosita</Name>
    </Ta>
  </Tas>
  <CoverRequirements>
    <DayOfWeekCover>
      <Day>Monday</Day>
      <Cover>
        <Course>00000</Course>
        <Preferred>2</Preferred>
      </Cover>
      <Cover>
        <Course>00001</Course>
        <Preferred>2</Preferred>
      </Cover>
      <Cover>
        <Course>00002</Course>
        <Preferred>1</Preferred>
      </Cover>
      <Cover>
        <Course>00003</Course>
        <Preferred>1</Preferred>
      </Cover>
    </DayOfWeekCover>
    <DayOfWeekCover>
      <Day>Tuesday</Day>
      <Cover>
        <Course>00000</Course>
        <Preferred>2</Preferred>
      </Cover>
      <Cover>
        <Course>00001</Course>
        <Preferred>2</Preferred>
      </Cover>
      <Cover>
        <Course>00002</Course>
        <Preferred>1</Preferred>
      </Cover>
      <Cover>
        <Course>00003</Course>
        <Preferred>1</Preferred>
      </Cover>
    </DayOfWeekCover>
    <DayOfWeekCover>
      <Day>Wednesday</Day>
      <Cover>
        <Course>00000</Course>
        <Preferred>2</Preferred>
      </Cover>
      <Cover>
        <Course>00001</Course>
        <Preferred>2</Preferred>
      </Cover>
      <Cover>
        <Course>00002</Course>
        <Preferred>1</Preferred>
      </Cover>
      <Cover>
        <Course>00003</Course>
        <Preferred>1</Preferred>
      </Cover>
    </DayOfWeekCover>
    <DayOfWeekCover>
      <Day>Thursday</Day>
      <Cover>
        <Course>00000</Course>
        <Preferred>2</Preferred>
      </Cover>
      <Cover>
        <Course>00001</Course>
        <Preferred>2</Preferred>
      </Cover>
      <Cover>
        <Course>00002</Course>
        <Preferred>1</Preferred>
      </Cover>
      <Cover>
        <Course>00003</Course>
        <Preferred>1</Preferred>
      </Cover>
    </DayOfWeekCover>
    <DayOfWeekCover>
      <Day>Friday</Day>
      <Cover>
        <Course>00000</Course>
        <Preferred>2</Preferred>
      </Cover>
      <Cover>
        <Course>00001</Course>
        <Preferred>2</Preferred>
      </Cover>
      <Cover>
        <Course>00002</Course>
        <Preferred>1</Preferred>
      </Cover>
      <Cover>
        <Course>00003</Course>
        <Preferred>1</Preferred>
      </Cover>
    </DayOfWeekCover>
    <DayOfWeekCover>
      <Day>Saturday</Day>
      <Cover>
        <Course>00000</Course>
        <Preferred>2</Preferred>
      </Cover>
      <Cover>
        <Course>00001</Course>
        <Preferred>2</Preferred>
      </Cover>
      <Cover>
        <Course>00002</Course>
        <Preferred>1</Preferred>
      </Cover>
      <Cover>
        <Course>00003</Course>
        <Preferred>1</Preferred>
      </Cover>
    </DayOfWeekCover>
    <DayOfWeekCover>
      <Day>Sunday</Day>
      <Cover>
        <Course>00000</Course>
        <Preferred>2</Preferred>
      </Cover>
      <Cover>
        <Course>00001</Course>
        <Preferred>2</Preferred>
      </Cover>
      <Cover>
        <Course>00002</Course>
        <Preferred>1</Preferred>
      </Cover>
      <Cover>
        <Course>00003</Course>
        <Preferred>1</Preferred>
      </Cover>
    </DayOfWeekCover>
  </CoverRequirements>
  <CourseOffRequests>
    <CourseOff weight="1">
      <CourseTypeID>00000</CourseTypeID>
      <TaID>0</TaID>
      <Date>Monday</Date>
    </CourseOff>
    <CourseOff weight="1">
      <CourseTypeID>00001</CourseTypeID>
      <TaID>4</TaID>
      <Date>Tuesday</Date>
    </CourseOff>
    <CourseOff weight="1">
      <CourseTypeID>00002</CourseTypeID>
      <TaID>5</TaID>
      <Date>Wednesday</Date>
    </CourseOff>
    <CourseOff weight="1">
      <CourseTypeID>00003</CourseTypeID>
      <TaID>6</TaID>
      <Date>Thursday</Date>
    </CourseOff>
    <CourseOff weight="1">
      <CourseTypeID>00001</CourseTypeID>
      <TaID>7</TaID>
      <Date>Friday</Date>
    </CourseOff>
    <CourseOff weight="1">
      <CourseTypeID>00000</CourseTypeID>
      <TaID>8</TaID>
      <Date>Saturday</Date>
    </CourseOff>
    <CourseOff weight="1">
      <CourseTypeID>00003</CourseTypeID>
      <TaID>9</TaID>
      <Date>Sunday</Date>
    </CourseOff>
    <CourseOff weight="1">
      <CourseTypeID>00002</CourseTypeID>
      <TaID>2</TaID>
      <Date>Monday</Date>
    </CourseOff>
    <CourseOff weight="1">
      <CourseTypeID>00003</CourseTypeID>
      <TaID>3</TaID>
      <Date>Tuesday</Date>
    </CourseOff>
  </CourseOffRequests>
</SchedulingPeriod>
